Name: Ing0809-2
Courses: 152
Rooms: 21
Days: 5
Periods_per_day: 5
Curricula: 82
Min_Max_Daily_Lectures: 2 3
UnavailabilityConstraints: 916
RoomConstraints: 456

COURSES:
c0009 t000 2 2 19 0
c0013 t001 2 2 19 0
c0014 t002 2 2 27 0
c0019 t003 2 2 32 0
c0024 t004 2 2 36 0
c0035 t005 2 2 10 0
c0036 t006 2 2 13 0
c0047 t007 2 2 100 0
c0049 t008 2 2 60 0
c0051 t009 4 3 159 0
c0056 t010 2 2 60 0
c0060 t011 2 2 100 0
c0062 t012 2 2 60 0
c0072 t013 2 2 118 0
c0073 t014 2 2 44 0
c0074 t015 2 1 18 1
c0098 t016 2 2 80 0
c0103 t017 4 4 80 0
c0106 t018 2 2 145 0
c0108 t019 2 2 90 0
c0113 t020 2 2 130 0
c0115 t021 2 2 135 0
c0116 t022 2 2 50 0
c0117 t023 2 2 50 0
c0118 t024 2 2 30 0
c0133 t025 2 1 110 1
c0148 t026 2 2 110 0
c0149 t027 4 4 110 0
c0150 t028 2 2 110 0
c0162 t029 2 2 100 0
c0191 t030 2 2 80 0
c0193 t031 2 2 101 0
c0198 t032 2 2 80 0
c0199 t033 2 2 80 0
c0200 t034 2 2 80 0
c0203 t035 2 2 75 0
c0211 t036 2 2 150 0
c0217 t037 4 4 103 0
c0219 t038 2 1 85 1
c0223 t039 2 2 98 0
c0227 t040 2 2 60 0
c0230 t041 2 2 121 0
c0232 t042 2 2 70 0
c0233 t043 2 2 76 0
c0247 t044 2 2 70 0
c0249 t045 2 2 60 0
c0253 t046 2 2 77 0
c0409 t047 2 2 30 0
c0411 t048 2 2 76 0
c0416 t043 2 2 38 0
c0417 t049 2 2 30 0
c0423 t048 2 2 50 0
c0428 t027 2 2 25 0
c0430 t041 2 2 70 0
c0432 t050 2 2 55 0
c0441 t050 2 2 38 0
c0443 t051 2 2 30 0
c0444 t052 2 2 25 0
c0447 t050 2 2 33 0
c0449 t046 2 2 25 0
c0456 t053 2 2 77 0
c0457 t033 2 2 77 0
c0464 t054 2 2 77 0
c0467 t055 2 2 16 0
c0489 t000 2 2 28 0
c0504 t014 2 2 28 0
c0510 t056 4 3 59 1
c0515 t057 2 2 89 0
c0516 t021 2 2 39 0
c0524 t058 2 2 49 0
c0526 t059 2 2 21 0
c0527 t024 2 2 24 0
c0530 t060 2 2 20 0
c0532 t032 2 2 20 0
c0533 t061 2 2 24 0
c0534 t062 2 2 18 0
c0535 t063 2 2 18 0
c0536 t062 2 2 18 0
c0537 t064 2 2 18 0
c0538 t064 2 2 18 0
c0539 t065 2 2 18 0
c0554 t066 2 2 5 0
c0609 t000 2 2 2 0
c0670 t037 2 2 30 0
c0718 t045 2 2 25 0
c0722 t067 2 2 80 0
c0723 t068 2 2 10 0
c0730 t007 2 2 8 0
c0745 t069 2 2 41 0
c0746 t070 4 3 100 0
c0773 t071 2 2 9 0
c0789 t072 2 2 8 0
c0794 t073 2 2 8 0
c0795 t074 2 2 19 0
c0797 t075 4 3 8 1
c0804 t002 2 2 4 0
c0807 t076 2 2 4 0
c0812 t077 4 3 16 0
c0814 t078 4 3 8 0
c0822 t079 2 2 8 0
c0835 t003 2 2 24 0
c0840 t080 2 2 60 0
c0841 t081 2 2 60 0
c0844 t082 2 2 60 0
c0845 t083 2 2 60 0
c0847 t084 2 2 60 0
c0849 t085 2 2 60 0
c0850 t086 2 2 60 0
c0856 t087 5 2 40 1
c0860 t038 5 2 30 1
c0862 t084 5 4 20 0
c0866 t088 5 2 10 1
c0869 t089 5 2 10 1
c0883 t090 5 2 10 1
c0898 t091 2 2 13 0
c0933 t042 2 2 30 0
c0936 t067 2 2 39 0
c0963 t000 5 2 60 1
c0969 t092 5 2 40 1
c1057 t055 2 2 20 0
c1064 t093 5 2 10 1
c1068 t008 2 2 74 0
c1069 t094 2 2 25 0
c1072 t095 2 2 60 0
c1077 t063 2 2 40 0
c1148 t074 2 2 8 0
c1161 t096 2 1 110 1
c1162 t097 2 1 50 1
c1163 t096 5 2 50 1
c1164 t097 5 2 50 1
c1184 t098 3 3 46 0
c1217 t000 4 3 60 0
c1225 t099 4 3 150 0
c1241 t100 4 4 90 0
c1255 t101 2 2 160 0
c1274 t102 2 2 120 0
c1282 t103 4 3 162 0
c1286 t010 2 2 125 0
c1300 t104 2 2 30 0
c1367 t000 2 2 59 0
c1256 t105 5 2 80 1
c1308 t000 3 3 125 0
c1307 t106 4 4 125 0
c1242 t107 3 3 90 0
c1257 t108 5 2 80 1
c0088 t109 4 4 112 0
c1264 t110 3 2 160 0
c1218 t111 3 3 60 0
c0741 t112 4 3 55 0
c1226 t019 3 3 150 0
c0196 t030 4 3 50 0
c0012 t078 2 2 33 0

ROOMS:
r25 40 0
r36 42 0
r37 42 0
r38 48 0
r34 50 0
r27 65 0
B 216 0
D 216 0
F 216 0
G 216 0
A 312 0
L 336 0
N 30 0
Er1 70 0
Er2 70 0
r52 60 0
E 216 0
r50 75 0
r51 78 0
DS1 60 0
DS2 60 0

CURRICULA:
q000 3 c0108 c1241 c1242 
q001 4 c0098 c0103 c0113 c0722 
q002 5 c0106 c0115 c0116 c0117 c0118 
q003 5 c0106 c0115 c0116 c0117 c1077 
q004 3 c0106 c0115 c0118 
q005 3 c0106 c0115 c0723 
q006 3 c0106 c0115 c1077 
q007 3 c0211 c1225 c1226 
q008 5 c0009 c0012 c0013 c0014 c0230 
q009 4 c0012 c0230 c0223 c0217 
q010 5 c0009 c0773 c0013 c0014 c0019 
q011 2 c0019 c0024 
q012 4 c0019 c0024 c0035 c0036 
q013 3 c0019 c0088 c0253 
q014 5 c0019 c0088 c0441 c0014 c0253 
q015 4 c0898 c0795 c0230 c0036 
q016 3 c0056 c1217 c1218 
q017 4 c0047 c0051 c0060 c0746 
q018 3 c0049 c0062 c0741 
q019 4 c0049 c0062 c0073 c0074 
q020 4 c0049 c0062 c1282 c1069 
q021 4 c0049 c0062 c0072 c0073 
q023 4 c0217 c0219 c0223 c0230 
q024 4 c0217 c0219 c0230 c0773 
q025 4 c0227 c0232 c0233 c0088 
q026 2 c0232 c0088 
q027 4 c0227 c0247 c0249 c0253 
q028 2 c0247 c0253 
q029 1 c0247 
q030 3 c1286 c1307 c1308 
q031 6 c1274 c0191 c0193 c0198 c0199 c0200 
q032 3 c0515 c0196 c0203 
q033 2 c0515 c0467 
q034 2 c0515 c0106 
q035 3 c1255 c1256 c1264 
q036 3 c1255 c1257 c1264 
q037 5 c0133 c0148 c0149 c0150 c0883 
q038 5 c0133 c0148 c0149 c0150 c0969 
q039 6 c0133 c0148 c0149 c0150 c0898 c0963 
q040 5 c0133 c0148 c0149 c0150 c0963 
q041 3 c0162 c1161 c1163 
q042 3 c0162 c1162 c1164 
q044 5 c1274 c0060 c0051 c0047 c0746 
q045 4 c1282 c0072 c0741 c0203 
q046 3 c1282 c0072 c0745 
q047 3 c1282 c0072 c1300 
q048 5 c0456 c1282 c1367 c1184 c0745 
q049 5 c0456 c1282 c1367 c1184 c1300 
q050 5 c0115 c0456 c0457 c1282 c0106 
q051 5 c0115 c0456 c0457 c1282 c0467 
q052 3 c0464 c0073 c0609 
q053 2 c0464 c0489 
q054 3 c0464 c0072 c0113 
q055 2 c0464 c0554 
q056 7 c0409 c0411 c0670 c0088 c0416 c0417 c0249 
q057 8 c0411 c0933 c0432 c0232 c0088 c0233 c0441 c0443 
q058 6 c0423 c0247 c0428 c0430 c0253 c0432 
q059 6 c0444 c0423 c0430 c0447 c0449 c0718 
q060 6 c0073 c1282 c0745 c0074 c1068 c1367 
q061 5 c0745 c1069 c1068 c1367 c1282 
q062 6 c0073 c0745 c1068 c1367 c0504 c0524 
q063 4 c1068 c0489 c0730 c0457 
q064 2 c1068 c1282 
q065 4 c0504 c1068 c0524 c0457 
q066 6 c0051 c0510 c0193 c0515 c0516 c0936 
q067 5 c0051 c0510 c0527 c0430 c0530 
q068 6 c0051 c0510 c0516 c0535 c0539 c0936 
q069 3 c0072 c0524 c0526 
q070 4 c0024 c0532 c0533 c1057 
q071 4 c0534 c0536 c0537 c0538 
q072 6 c1184 c0794 c0795 c0467 c0797 c0835 
q073 5 c1184 c0812 c0814 c0835 c0411 
q074 7 c1184 c0795 c0411 c0447 c0835 c0812 c1148 
q075 4 c0804 c0533 c0807 c0527 
q076 2 c0233 c0822 
q077 3 c0233 c0789 c0416 
q078 7 c0840 c0845 c0847 c0850 c1072 c1161 c0856 
q079 7 c0840 c0845 c0847 c0850 c1072 c1161 c0866 
q080 7 c0840 c0845 c0847 c0850 c1072 c1161 c0869 
q081 4 c0841 c0844 c0849 c0862 
q082 4 c0841 c0844 c0849 c0860 
q083 4 c0841 c0844 c0849 c1064 

UNAVAILABILITY_CONSTRAINTS:
c0013 0 4
c0013 1 4
c0013 2 3
c0013 2 4
c0013 3 3
c0013 3 4
c0013 4 3
c0013 4 4
c0014 0 1
c0014 0 2
c0014 0 3
c0014 0 4
c0014 1 1
c0014 1 2
c0014 1 3
c0014 1 4
c0014 2 1
c0014 2 2
c0014 2 3
c0014 2 4
c0014 3 1
c0014 3 2
c0014 3 3
c0014 3 4
c0014 4 0
c0014 4 1
c0014 4 2
c0014 4 3
c0014 4 4
c0024 0 0
c0024 0 1
c0024 0 2
c0024 1 0
c0024 2 0
c0024 3 0
c0024 4 0
c0024 4 4
c0047 0 0
c0047 0 1
c0047 0 2
c0047 0 3
c0047 0 4
c0047 4 2
c0047 4 3
c0047 4 4
c0049 0 0
c0049 0 1
c0049 0 2
c0049 4 0
c0049 4 1
c0049 4 2
c0049 4 3
c0049 4 4
c0051 0 4
c0051 1 1
c0051 1 2
c0051 1 3
c0051 1 4
c0051 3 2
c0051 3 3
c0051 3 4
c0051 4 0
c0051 4 1
c0051 4 2
c0051 4 3
c0051 4 4
c0056 0 2
c0056 0 3
c0056 0 4
c0056 1 2
c0056 1 3
c0056 1 4
c0056 2 2
c0056 2 3
c0056 2 4
c0056 3 2
c0056 3 3
c0056 3 4
c0056 4 2
c0056 4 3
c0056 4 4
c0060 0 0
c0060 0 1
c0060 0 2
c0060 4 0
c0060 4 1
c0060 4 2
c0060 4 3
c0060 4 4
c0062 0 0
c0062 0 1
c0062 0 2
c0062 0 3
c0062 0 4
c0062 1 0
c0062 1 1
c0062 1 2
c0062 1 3
c0062 1 4
c0062 4 0
c0062 4 1
c0062 4 2
c0062 4 3
c0062 4 4
c0072 0 0
c0072 0 1
c0072 0 2
c0072 0 3
c0072 0 4
c0072 1 4
c0072 2 4
c0072 3 3
c0072 3 4
c0072 4 0
c0072 4 1
c0072 4 2
c0072 4 3
c0072 4 4
c0098 0 0
c0098 0 1
c0098 0 2
c0098 0 3
c0098 0 4
c0098 1 0
c0098 1 1
c0098 1 2
c0098 1 3
c0098 1 4
c0098 2 2
c0098 3 0
c0098 3 1
c0098 3 2
c0098 3 3
c0098 3 4
c0103 0 0
c0103 0 2
c0103 0 3
c0103 0 4
c0103 1 2
c0103 2 2
c0103 3 2
c0103 4 2
c0106 0 0
c0106 0 1
c0106 0 2
c0106 2 2
c0106 4 0
c0106 4 1
c0106 4 2
c0106 4 3
c0106 4 4
c0108 0 2
c0108 0 3
c0108 0 4
c0108 1 2
c0108 1 3
c0108 1 4
c0108 2 2
c0108 2 3
c0108 2 4
c0108 3 2
c0108 3 3
c0108 3 4
c0108 4 2
c0108 4 3
c0108 4 4
c0113 3 0
c0113 3 1
c0113 3 2
c0113 3 3
c0113 3 4
c0113 4 0
c0113 4 1
c0113 4 2
c0113 4 3
c0113 4 4
c0115 3 0
c0115 3 1
c0115 3 2
c0115 3 3
c0115 3 4
c0115 4 0
c0115 4 1
c0115 4 2
c0115 4 3
c0115 4 4
c0116 0 4
c0116 1 4
c0116 3 4
c0116 4 0
c0116 4 1
c0116 4 2
c0116 4 3
c0116 4 4
c0117 0 2
c0117 0 4
c0117 1 2
c0117 1 4
c0117 2 2
c0117 2 4
c0117 3 2
c0117 3 4
c0117 4 2
c0117 4 3
c0117 4 4
c0118 0 0
c0118 0 1
c0118 0 2
c0118 1 2
c0118 1 3
c0118 1 4
c0133 0 2
c0148 0 2
c0148 0 4
c0148 1 0
c0148 1 4
c0148 2 4
c0148 3 0
c0148 3 4
c0148 4 3
c0148 4 4
c0149 0 2
c0149 0 4
c0149 1 2
c0149 1 4
c0149 2 4
c0149 3 2
c0149 4 2
c0150 0 2
c0162 1 2
c0191 0 0
c0191 0 1
c0191 4 0
c0191 4 1
c0191 4 2
c0191 4 3
c0191 4 4
c0193 0 3
c0193 0 4
c0193 3 4
c0193 4 0
c0193 4 1
c0193 4 2
c0193 4 3
c0193 4 4
c0198 0 2
c0198 1 2
c0198 2 2
c0198 2 3
c0198 2 4
c0198 3 2
c0198 4 2
c0198 4 4
c0199 0 2
c0199 1 2
c0199 1 4
c0199 2 2
c0199 3 2
c0199 4 2
c0199 4 3
c0199 4 4
c0211 0 0
c0211 0 1
c0211 0 2
c0211 3 0
c0211 3 1
c0217 0 4
c0217 1 4
c0217 2 3
c0217 2 4
c0217 3 4
c0217 4 4
c0219 2 0
c0219 2 1
c0219 2 2
c0219 2 3
c0219 2 4
c0219 3 0
c0219 3 1
c0219 4 0
c0223 0 0
c0223 0 2
c0223 1 2
c0223 2 2
c0223 3 2
c0223 4 0
c0223 4 2
c0223 4 4
c0227 0 0
c0227 0 1
c0227 0 2
c0227 0 3
c0227 4 1
c0227 4 2
c0227 4 3
c0227 4 4
c0232 0 0
c0232 0 2
c0232 1 2
c0232 2 2
c0232 3 2
c0232 4 2
c0232 4 3
c0232 4 4
c0233 1 0
c0233 1 1
c0233 1 2
c0233 1 3
c0233 1 4
c0233 2 0
c0233 2 1
c0233 2 2
c0233 2 3
c0233 2 4
c0233 3 0
c0233 3 1
c0233 3 2
c0233 3 3
c0233 3 4
c0253 0 0
c0253 0 1
c0253 0 2
c0253 0 3
c0253 0 4
c0416 1 0
c0416 1 1
c0416 1 2
c0416 1 3
c0416 1 4
c0416 2 0
c0416 2 1
c0416 2 2
c0416 2 3
c0416 2 4
c0416 3 0
c0416 3 1
c0416 3 2
c0416 3 3
c0416 3 4
c0417 0 4
c0417 1 4
c0417 2 3
c0417 2 4
c0417 3 3
c0417 3 4
c0417 4 3
c0417 4 4
c0428 0 2
c0428 1 1
c0428 1 2
c0428 1 3
c0428 1 4
c0428 2 2
c0428 3 2
c0428 4 2
c0432 3 0
c0432 3 1
c0432 3 2
c0432 3 3
c0432 3 4
c0441 3 0
c0441 3 1
c0441 3 2
c0441 3 3
c0441 3 4
c0443 0 0
c0443 0 1
c0443 0 2
c0443 4 0
c0443 4 1
c0443 4 2
c0443 4 3
c0443 4 4
c0444 0 0
c0444 0 1
c0444 0 2
c0444 0 3
c0444 0 4
c0447 3 0
c0447 3 1
c0447 3 2
c0447 3 3
c0447 3 4
c0449 0 0
c0449 0 1
c0449 0 2
c0449 0 3
c0449 0 4
c0456 0 0
c0456 0 1
c0456 0 2
c0456 0 3
c0456 0 4
c0456 1 0
c0456 2 4
c0456 3 0
c0456 3 1
c0456 3 2
c0456 3 3
c0456 3 4
c0456 4 0
c0456 4 1
c0456 4 2
c0456 4 3
c0456 4 4
c0457 0 2
c0457 1 2
c0457 1 4
c0457 2 2
c0457 3 2
c0457 4 2
c0457 4 3
c0457 4 4
c0467 0 2
c0467 1 2
c0467 2 2
c0467 3 2
c0467 4 2
c0504 0 0
c0504 0 1
c0504 0 2
c0504 0 3
c0504 0 4
c0504 1 0
c0504 1 1
c0504 4 4
c0510 4 0
c0510 4 1
c0510 4 2
c0510 4 3
c0510 4 4
c0515 0 2
c0515 0 4
c0515 1 2
c0515 1 4
c0515 3 2
c0515 3 4
c0515 4 2
c0515 4 4
c0516 3 0
c0516 3 1
c0516 3 2
c0516 3 3
c0516 3 4
c0516 4 0
c0516 4 1
c0516 4 2
c0516 4 3
c0516 4 4
c0527 0 0
c0527 0 1
c0527 0 2
c0527 1 2
c0527 1 3
c0527 1 4
c0530 0 0
c0530 0 2
c0530 0 3
c0530 0 4
c0530 1 0
c0530 1 2
c0530 1 3
c0530 1 4
c0530 2 0
c0530 3 0
c0530 4 0
c0532 0 2
c0532 1 2
c0532 2 2
c0532 2 3
c0532 2 4
c0532 3 2
c0532 4 2
c0532 4 4
c0533 0 0
c0533 0 1
c0533 3 0
c0533 4 0
c0533 4 1
c0533 4 2
c0533 4 3
c0533 4 4
c0534 0 0
c0534 0 1
c0534 0 2
c0534 0 3
c0534 4 1
c0534 4 2
c0534 4 3
c0534 4 4
c0535 3 2
c0535 3 3
c0535 3 4
c0535 4 0
c0535 4 1
c0535 4 2
c0535 4 3
c0535 4 4
c0536 0 0
c0536 0 1
c0536 0 2
c0536 0 3
c0536 4 1
c0536 4 2
c0536 4 3
c0536 4 4
c0539 0 2
c0539 1 2
c0539 2 2
c0539 3 2
c0539 4 2
c0722 0 0
c0722 0 1
c0722 0 2
c0722 0 3
c0722 0 4
c0722 1 0
c0722 1 1
c0722 1 2
c0722 1 3
c0722 1 4
c0723 1 0
c0723 1 1
c0723 1 2
c0723 1 3
c0723 2 2
c0723 3 2
c0723 3 3
c0723 3 4
c0730 0 0
c0730 0 1
c0730 0 2
c0730 0 3
c0730 0 4
c0730 4 2
c0730 4 3
c0730 4 4
c0745 0 0
c0745 0 1
c0745 4 3
c0745 4 4
c0746 0 0
c0746 0 4
c0746 1 0
c0746 1 4
c0746 2 0
c0746 3 0
c0746 4 0
c0746 4 4
c0773 4 2
c0773 4 3
c0773 4 4
c0789 0 2
c0789 1 2
c0789 2 2
c0789 3 0
c0789 3 1
c0789 3 2
c0789 3 3
c0789 4 2
c0795 0 0
c0795 0 2
c0795 1 0
c0795 1 2
c0795 2 0
c0795 2 2
c0795 3 2
c0795 4 2
c0807 0 0
c0807 1 0
c0807 2 0
c0807 3 0
c0807 3 4
c0807 4 0
c0807 4 4
c0812 0 0
c0812 0 1
c0812 0 2
c0812 0 3
c0812 0 4
c0812 4 0
c0812 4 1
c0812 4 2
c0812 4 3
c0812 4 4
c0814 2 3
c0814 2 4
c0814 3 0
c0814 3 1
c0814 3 2
c0814 3 3
c0814 3 4
c0841 0 0
c0841 0 2
c0841 0 4
c0841 1 0
c0841 1 4
c0841 2 0
c0841 3 0
c0841 4 0
c0841 4 4
c0844 0 2
c0845 1 0
c0845 1 1
c0845 1 2
c0845 1 3
c0845 2 0
c0845 2 1
c0845 2 2
c0845 2 3
c0847 0 0
c0847 0 1
c0847 0 2
c0847 0 3
c0847 0 4
c0847 1 0
c0847 1 1
c0847 1 2
c0849 0 2
c0850 0 0
c0850 1 0
c0850 3 0
c0850 4 0
c0850 4 1
c0850 4 2
c0850 4 3
c0850 4 4
c0860 2 0
c0860 2 1
c0860 2 2
c0860 2 3
c0860 2 4
c0862 0 0
c0862 0 1
c0862 0 2
c0862 0 3
c0862 0 4
c0862 1 0
c0862 1 1
c0862 1 2
c0866 0 0
c0866 0 1
c0866 0 2
c0866 2 0
c0866 2 1
c0866 2 2
c0866 2 3
c0866 2 4
c0869 0 0
c0869 0 1
c0869 0 2
c0869 4 0
c0869 4 1
c0869 4 2
c0869 4 3
c0869 4 4
c0883 1 0
c0883 1 1
c0883 1 2
c0883 1 3
c0883 1 4
c0883 2 0
c0883 2 1
c0883 2 2
c0883 2 3
c0883 2 4
c0898 1 1
c0898 1 2
c0898 1 3
c0898 1 4
c0898 3 0
c0898 3 1
c0898 4 3
c0898 4 4
c0933 0 0
c0933 0 2
c0933 1 2
c0933 2 2
c0933 3 2
c0933 4 2
c0933 4 3
c0933 4 4
c0936 0 0
c0936 0 1
c0936 0 2
c0936 0 3
c0936 0 4
c0936 1 0
c0936 1 1
c0936 1 2
c0936 1 3
c0936 1 4
c0969 3 0
c0969 3 1
c0969 3 2
c0969 3 3
c0969 3 4
c1057 0 2
c1057 1 2
c1057 2 2
c1057 3 2
c1057 4 2
c1068 0 0
c1068 0 1
c1068 0 2
c1068 4 0
c1068 4 1
c1068 4 2
c1068 4 3
c1068 4 4
c1069 0 0
c1069 0 1
c1069 0 2
c1069 0 3
c1069 0 4
c1069 4 4
c1072 0 0
c1072 1 0
c1072 2 0
c1072 3 0
c1072 4 0
c1077 3 2
c1077 3 3
c1077 3 4
c1077 4 0
c1077 4 1
c1077 4 2
c1077 4 3
c1077 4 4
c1148 0 0
c1148 0 2
c1148 1 0
c1148 1 2
c1148 2 0
c1148 2 2
c1148 3 2
c1148 4 2
c1184 0 0
c1184 0 1
c1184 0 2
c1184 0 3
c1184 0 4
c1184 4 0
c1184 4 3
c1184 4 4
c1217 0 0
c1217 0 2
c1217 0 3
c1217 0 4
c1217 3 0
c1217 3 1
c1217 3 2
c1217 3 3
c1217 3 4
c1241 3 2
c1241 3 3
c1241 3 4
c1241 4 0
c1241 4 1
c1241 4 2
c1241 4 3
c1241 4 4
c1255 0 0
c1255 0 1
c1255 1 3
c1255 2 2
c1255 4 1
c1255 4 4
c1274 0 0
c1274 1 0
c1274 2 0
c1274 2 1
c1274 2 3
c1274 2 4
c1274 3 0
c1274 4 0
c1282 0 3
c1282 0 4
c1282 1 3
c1282 1 4
c1282 2 3
c1282 2 4
c1282 3 3
c1282 3 4
c1282 4 0
c1282 4 1
c1282 4 2
c1282 4 3
c1282 4 4
c1286 0 2
c1286 0 3
c1286 0 4
c1286 1 2
c1286 1 3
c1286 1 4
c1286 2 2
c1286 2 3
c1286 2 4
c1286 3 2
c1286 3 3
c1286 3 4
c1286 4 2
c1286 4 3
c1286 4 4
c1300 0 4
c1300 1 4
c1300 2 2
c1300 2 4
c1300 3 4
c1300 4 4
c1256 0 0
c1256 0 1
c1256 0 3
c1256 0 4
c1256 1 0
c1256 1 1
c1256 1 3
c1256 1 4
c1308 0 4
c1308 1 4
c1308 2 4
c1308 3 4
c1308 4 4
c1307 0 0
c1307 1 0
c1307 2 0
c1307 3 0
c1307 4 0
c1307 4 1
c1307 4 3
c1307 4 4
c1242 0 2
c1242 0 3
c1242 0 4
c1242 1 2
c1242 1 3
c1242 1 4
c1242 2 2
c1242 2 3
c1242 2 4
c1242 3 2
c1242 3 3
c1242 3 4
c1242 4 2
c1242 4 3
c1242 4 4
c0088 0 0
c0088 0 1
c0088 0 2
c0088 1 2
c0088 2 2
c0088 3 2
c0088 4 2
c1264 0 0
c1264 0 1
c1264 1 0
c1264 1 1
c1264 2 0
c1264 2 1
c1264 3 0
c1264 3 1
c1264 3 2
c1264 3 3
c1264 3 4
c1264 4 0
c1264 4 1
c1264 4 2
c1264 4 3
c1264 4 4
c1218 0 2
c1218 0 4
c1218 1 2
c1218 1 4
c1218 2 2
c1218 2 4
c1218 3 2
c1218 3 4
c1218 4 2
c1218 4 4
c0741 0 4
c0741 1 1
c0741 1 2
c0741 1 3
c0741 1 4
c0741 3 2
c0741 3 3
c0741 3 4
c1226 0 2
c1226 0 3
c1226 0 4
c1226 1 2
c1226 1 3
c1226 1 4
c1226 2 2
c1226 2 3
c1226 2 4
c1226 3 2
c1226 3 3
c1226 3 4
c1226 4 2
c1226 4 3
c1226 4 4
c0196 0 0
c0196 0 1
c0196 4 0
c0196 4 1
c0196 4 2
c0196 4 3
c0196 4 4
c0012 2 3
c0012 2 4
c0012 3 0
c0012 3 1
c0012 3 2
c0012 3 3
c0012 3 4

ROOM_CONSTRAINTS:
c0009 Er1
c0009 Er2
c0009 DS1
c0013 Er1
c0013 Er2
c0013 DS1
c0014 Er1
c0014 Er2
c0014 DS1
c0019 Er1
c0019 Er2
c0019 DS1
c0024 Er1
c0024 Er2
c0024 DS1
c0035 Er1
c0035 Er2
c0035 DS1
c0036 Er1
c0036 Er2
c0036 DS1
c0047 Er1
c0047 Er2
c0047 DS1
c0049 Er1
c0049 Er2
c0049 DS1
c0051 Er1
c0051 Er2
c0051 DS1
c0056 Er1
c0056 Er2
c0056 DS1
c0060 Er1
c0060 Er2
c0060 DS1
c0062 Er1
c0062 Er2
c0062 DS1
c0072 Er1
c0072 Er2
c0072 DS1
c0073 Er1
c0073 Er2
c0073 DS1
c0074 Er1
c0074 Er2
c0074 DS1
c0098 Er1
c0098 Er2
c0098 DS1
c0103 Er1
c0103 Er2
c0103 DS1
c0106 Er1
c0106 Er2
c0106 DS1
c0108 Er1
c0108 Er2
c0108 DS1
c0113 Er1
c0113 Er2
c0113 DS1
c0115 Er1
c0115 Er2
c0115 DS1
c0116 Er1
c0116 Er2
c0116 DS1
c0117 Er1
c0117 Er2
c0117 DS1
c0118 Er1
c0118 Er2
c0118 DS1
c0133 Er1
c0133 Er2
c0133 DS1
c0148 Er1
c0148 Er2
c0148 DS1
c0149 Er1
c0149 Er2
c0149 DS1
c0150 Er1
c0150 Er2
c0150 DS1
c0162 Er1
c0162 Er2
c0162 DS1
c0191 Er1
c0191 Er2
c0191 DS1
c0193 Er1
c0193 Er2
c0193 DS1
c0198 Er1
c0198 Er2
c0198 DS1
c0199 Er1
c0199 Er2
c0199 DS1
c0200 Er1
c0200 Er2
c0200 DS1
c0203 Er1
c0203 Er2
c0203 DS1
c0211 Er1
c0211 Er2
c0211 DS1
c0217 Er1
c0217 Er2
c0217 DS1
c0219 Er1
c0219 Er2
c0219 DS1
c0223 Er1
c0223 Er2
c0223 DS1
c0227 Er1
c0227 Er2
c0227 DS1
c0230 Er1
c0230 Er2
c0230 DS1
c0232 Er1
c0232 Er2
c0232 DS1
c0233 Er1
c0233 Er2
c0233 DS1
c0247 Er1
c0247 Er2
c0247 DS1
c0249 Er1
c0249 Er2
c0249 DS1
c0253 Er1
c0253 Er2
c0253 DS1
c0409 Er1
c0409 Er2
c0409 DS1
c0411 Er1
c0411 Er2
c0411 DS1
c0416 Er1
c0416 Er2
c0416 DS1
c0417 Er1
c0417 Er2
c0417 DS1
c0423 Er1
c0423 Er2
c0423 DS1
c0428 Er1
c0428 Er2
c0428 DS1
c0430 Er1
c0430 Er2
c0430 DS1
c0432 Er1
c0432 Er2
c0432 DS1
c0441 Er1
c0441 Er2
c0441 DS1
c0443 Er1
c0443 Er2
c0443 DS1
c0444 Er1
c0444 Er2
c0444 DS1
c0447 Er1
c0447 Er2
c0447 DS1
c0449 Er1
c0449 Er2
c0449 DS1
c0456 Er1
c0456 Er2
c0456 DS1
c0457 Er1
c0457 Er2
c0457 DS1
c0464 Er1
c0464 Er2
c0464 DS1
c0467 Er1
c0467 Er2
c0467 DS1
c0489 Er1
c0489 Er2
c0489 DS1
c0504 Er1
c0504 Er2
c0504 DS1
c0510 Er1
c0510 Er2
c0510 DS1
c0515 Er1
c0515 Er2
c0515 DS1
c0516 Er1
c0516 Er2
c0516 DS1
c0524 Er1
c0524 Er2
c0524 DS1
c0526 Er1
c0526 Er2
c0526 DS1
c0527 Er1
c0527 Er2
c0527 DS1
c0530 Er1
c0530 Er2
c0530 DS1
c0532 Er1
c0532 Er2
c0532 DS1
c0533 Er1
c0533 Er2
c0533 DS1
c0534 Er1
c0534 Er2
c0534 DS1
c0535 Er1
c0535 Er2
c0535 DS1
c0536 Er1
c0536 Er2
c0536 DS1
c0537 Er1
c0537 Er2
c0537 DS1
c0538 Er1
c0538 Er2
c0538 DS1
c0539 Er1
c0539 Er2
c0539 DS1
c0554 Er1
c0554 Er2
c0554 DS1
c0609 Er1
c0609 Er2
c0609 DS1
c0670 Er1
c0670 Er2
c0670 DS1
c0718 Er1
c0718 Er2
c0718 DS1
c0722 Er1
c0722 Er2
c0722 DS1
c0723 Er1
c0723 Er2
c0723 DS1
c0730 Er1
c0730 Er2
c0730 DS1
c0745 Er1
c0745 Er2
c0745 DS1
c0746 Er1
c0746 Er2
c0746 DS1
c0773 Er1
c0773 Er2
c0773 DS1
c0789 Er1
c0789 Er2
c0789 DS1
c0794 Er1
c0794 Er2
c0794 DS1
c0795 Er1
c0795 Er2
c0795 DS1
c0797 Er1
c0797 Er2
c0797 DS1
c0804 Er1
c0804 Er2
c0804 DS1
c0807 Er1
c0807 Er2
c0807 DS1
c0812 Er1
c0812 Er2
c0812 DS1
c0814 Er1
c0814 Er2
c0814 DS1
c0822 Er1
c0822 Er2
c0822 DS1
c0835 Er1
c0835 Er2
c0835 DS1
c0840 Er1
c0840 Er2
c0840 DS1
c0841 Er1
c0841 Er2
c0841 DS1
c0844 Er1
c0844 Er2
c0844 DS1
c0845 Er1
c0845 Er2
c0845 DS1
c0847 Er1
c0847 Er2
c0847 DS1
c0849 Er1
c0849 Er2
c0849 DS1
c0850 Er1
c0850 Er2
c0850 DS1
c0856 Er1
c0856 Er2
c0856 DS1
c0860 Er1
c0860 Er2
c0860 DS1
c0862 Er1
c0862 Er2
c0862 DS1
c0866 Er1
c0866 Er2
c0866 DS1
c0869 Er1
c0869 Er2
c0869 DS1
c0883 Er1
c0883 Er2
c0883 DS1
c0898 Er1
c0898 Er2
c0898 DS1
c0933 Er1
c0933 Er2
c0933 DS1
c0936 Er1
c0936 Er2
c0936 DS1
c0963 Er1
c0963 Er2
c0963 DS1
c0969 Er1
c0969 Er2
c0969 DS1
c1057 Er1
c1057 Er2
c1057 DS1
c1064 Er1
c1064 Er2
c1064 DS1
c1068 Er1
c1068 Er2
c1068 DS1
c1069 Er1
c1069 Er2
c1069 DS1
c1072 Er1
c1072 Er2
c1072 DS1
c1077 Er1
c1077 Er2
c1077 DS1
c1148 Er1
c1148 Er2
c1148 DS1
c1161 Er1
c1161 Er2
c1161 DS1
c1162 Er1
c1162 Er2
c1162 DS1
c1163 Er1
c1163 Er2
c1163 DS1
c1164 Er1
c1164 Er2
c1164 DS1
c1184 Er1
c1184 Er2
c1184 DS1
c1217 Er1
c1217 Er2
c1217 DS1
c1225 Er1
c1225 Er2
c1225 DS1
c1241 Er1
c1241 Er2
c1241 DS1
c1255 Er1
c1255 Er2
c1255 DS1
c1274 Er1
c1274 Er2
c1274 DS1
c1282 Er1
c1282 Er2
c1282 DS1
c1286 Er1
c1286 Er2
c1286 DS1
c1300 Er1
c1300 Er2
c1300 DS1
c1367 Er1
c1367 Er2
c1367 DS1
c1256 Er1
c1256 Er2
c1256 DS1
c1308 Er1
c1308 Er2
c1308 DS1
c1307 Er1
c1307 Er2
c1307 DS1
c1242 Er1
c1242 Er2
c1242 DS1
c1257 Er1
c1257 Er2
c1257 DS1
c0088 Er1
c0088 Er2
c0088 DS1
c1264 Er1
c1264 Er2
c1264 DS1
c1218 Er1
c1218 Er2
c1218 DS1
c0741 Er1
c0741 Er2
c0741 DS1
c1226 Er1
c1226 Er2
c1226 DS1
c0196 Er1
c0196 Er2
c0196 DS1
c0012 Er1
c0012 Er2
c0012 DS1

END.
